/*********************************************
 * OPL 12.6.0.0 Data
 * Author: Adrian Rodriguez Bazaga, Pau Rodriguez Esmerats
 * Creation Date: 10/12/2017 at 12:53:53
 *********************************************/

maxConsec=10;
maxPresence=16;
maxHours=5;
minHours=1;
hours=24;
demand= [33 37 38 29 26 9 4 4 4 1 0 1 0 1 0 0 0 0 0 1 0 1 0 1  ];
nNurses=64;
centroides=3;
